certificates/rado_a11_c211_N22.cnf
c Rad2 upper bound instance: x1 + 11*x2 - x3 = 211, interval [1,22]
p cnf 22 88
1 10 20 0
-1 -10 -20 0
1 21 0
-1 -21 0
2 11 20 0
-2 -11 -20 0
2 21 22 0
-2 -21 -22 0
1 3 19 0
-1 -3 -19 0
3 12 20 0
-3 -12 -20 0
2 4 19 0
-2 -4 -19 0
4 13 20 0
-4 -13 -20 0
3 5 19 0
-3 -5 -19 0
5 14 20 0
-5 -14 -20 0
4 6 19 0
-4 -6 -19 0
6 15 20 0
-6 -15 -20 0
5 7 19 0
-5 -7 -19 0
7 16 20 0
-7 -16 -20 0
6 8 19 0
-6 -8 -19 0
8 17 20 0
-8 -17 -20 0
7 9 19 0
-7 -9 -19 0
9 18 20 0
-9 -18 -20 0
8 10 19 0
-8 -10 -19 0
10 19 20 0
-10 -19 -20 0
9 11 19 0
-9 -11 -19 0
11 20 0
-11 -20 0
10 12 19 0
-10 -12 -19 0
12 20 21 0
-12 -20 -21 0
11 13 19 0
-11 -13 -19 0
13 20 22 0
-13 -20 -22 0
1 14 18 0
-1 -14 -18 0
12 14 19 0
-12 -14 -19 0
2 15 18 0
-2 -15 -18 0
13 15 19 0
-13 -15 -19 0
3 16 18 0
-3 -16 -18 0
14 16 19 0
-14 -16 -19 0
4 17 18 0
-4 -17 -18 0
15 17 19 0
-15 -17 -19 0
5 18 0
-5 -18 0
16 18 19 0
-16 -18 -19 0
6 18 19 0
-6 -18 -19 0
17 19 0
-17 -19 0
7 18 20 0
-7 -18 -20 0
18 19 20 0
-18 -19 -20 0
8 18 21 0
-8 -18 -21 0
19 21 0
-19 -21 0
9 18 22 0
-9 -18 -22 0
19 20 22 0
-19 -20 -22 0
