certificates/rado_a11_c211_N22.drat
-21 -22 0
-22 0
21 0
-1 0
-19 0
17 0
3 0
20 0
-11 0
-12 0
-8 0
9 0
13 0
10 0
14 0
6 0
-18 0
-4 0
-5 0
-15 0
0
